(set-logic ALL)
(set-option :produce-models true)
(declare-sort BoundSet 0)
(declare-sort UnboundSet 0)
(set-option :finite-model-find true)
(declare-fun IsSeatedOn (BoundSet BoundSet) Bool)
(declare-fun IsOutside (BoundSet) Bool)
(declare-fun IsSittingOn (BoundSet BoundSet) Bool)
(declare-fun IsInFrontOf (BoundSet) Bool)
(assert (not (=> (and (exists ((c BoundSet)) (exists ((a BoundSet)) (exists ((b BoundSet)) (and (IsSeatedOn b a) (IsOutside c))))) (and (forall ((f BoundSet)) (forall ((h BoundSet)) (forall ((g BoundSet)) (=> (IsSeatedOn f g) (IsSittingOn h g))))) (forall ((i BoundSet)) (forall ((j BoundSet)) (forall ((k BoundSet)) (=> (IsSittingOn i j) (IsSeatedOn k j))))))) (exists ((e BoundSet)) (exists ((a BoundSet)) (exists ((d BoundSet)) (and (IsSittingOn d a) (IsInFrontOf e))))))))
(check-sat)
(get-model)